p cnf 27 40
25 14 -14 0
7 12 -14 0
-2 25 -14 0
-12 14 -26 0
14 -8 -17 0
6 22 8 0
-3 15 16 0
-21 -16 -23 0
18 -17 -2 0
-10 -7 -3 0
21 -4 -16 0
-19 -12 21 0
-2 -16 6 0
-23 -22 -6 0
-26 8 10 0
-14 9 3 0
-8 16 9 0
25 23 12 0
9 -2 10 0
-24 18 6 0
18 -27 13 0
4 -15 -12 0
11 -16 -22 0
-21 24 14 0
6 20 3 0
-25 9 27 0
15 17 9 0
-26 -9 9 0
10 2 -9 0
-25 -12 -12 0
18 -5 -19 0
1 25 5 0
-19 -17 -24 0
-27 -2 -2 0
23 -11 11 0
-15 -27 27 0
7 -4 21 0
4 -12 -13 0
-1 -17 -10 0
12 -19 -4 0
